NAME: tsp30-38
TYPE: TSP
DIMENSION: 30
EDGE_WEIGHT_TYPE: EUC_2D
NODE_COORD_SECTION
0 58 83
1 100 72
2 77 57
3 88 53
4 78 2
5 30 55
6 78 56
7 50 86
8 45 15
9 78 43
10 97 19
11 96 91
12 95 48
13 34 24
14 2 97
15 9 24
16 98 83
17 93 74
18 0 43
19 88 39
20 30 0
21 95 22
22 30 68
23 58 1
24 92 56
25 92 90
26 88 76
27 19 11
28 20 43
29 24 38
EOF